NAME : portgen-25-22
COMMENT : portgen N=25, seed=22
TYPE : TSP
DIMENSION : 25
EDGE_WEIGHT_TYPE : EUC_2D
NODE_COORD_SECTION
1 965308 72460
2 550318 64518
3 18452 925821
4 435648 69089
5 272838 722612
6 543771 222308
7 93038 247166
8 346075 761537
9 508910 893411
10 845526 948080
11 635982 84904
12 411875 202216
13 739250 428960
14 916426 832239
15 219138 823400
16 625833 655598
17 459991 607948
18 695825 16556
19 513399 764052
20 242191 121018
21 129443 700445
22 408173 905081
23 147908 401768
24 206672 597973
25 695049 308736
